p cnf 386 460
16 6 -12 21 22 0
16 6 -12 21 -22 0
16 6 -12 -21 23 0
16 6 -12 -21 -23 0
9 16 5 24 25 0
9 16 5 24 -25 0
9 16 5 -24 26 0
9 16 5 -24 -26 0
14 20 -7 27 28 0
14 20 -7 27 -28 0
14 20 -7 -27 29 0
14 20 -7 -27 -29 0
-10 -9 20 30 31 0
-10 -9 20 30 -31 0
-10 -9 20 -30 32 0
-10 -9 20 -30 -32 0
20 -1 -14 33 34 0
20 -1 -14 33 -34 0
20 -1 -14 -33 35 0
20 -1 -14 -33 -35 0
-5 -9 -18 36 37 0
-5 -9 -18 36 -37 0
-5 -9 -18 -36 38 0
-5 -9 -18 -36 -38 0
-12 7 -14 39 40 0
-12 7 -14 39 -40 0
-12 7 -14 -39 41 0
-12 7 -14 -39 -41 0
17 3 15 42 43 0
17 3 15 42 -43 0
17 3 15 -42 44 0
17 3 15 -42 -44 0
-16 12 10 45 46 0
-16 12 10 45 -46 0
-16 12 10 -45 47 0
-16 12 10 -45 -47 0
15 3 8 48 49 0
15 3 8 48 -49 0
15 3 8 -48 50 0
15 3 8 -48 -50 0
-20 8 9 51 52 0
-20 8 9 51 -52 0
-20 8 9 -51 53 0
-20 8 9 -51 -53 0
16 -15 13 54 55 0
16 -15 13 54 -55 0
16 -15 13 -54 56 0
16 -15 13 -54 -56 0
-4 -8 5 57 58 0
-4 -8 5 57 -58 0
-4 -8 5 -57 59 0
-4 -8 5 -57 -59 0
20 7 19 60 61 0
20 7 19 60 -61 0
20 7 19 -60 62 0
20 7 19 -60 -62 0
17 16 4 63 64 0
17 16 4 63 -64 0
17 16 4 -63 65 0
17 16 4 -63 -65 0
-5 -3 -14 66 67 0
-5 -3 -14 66 -67 0
-5 -3 -14 -66 68 0
-5 -3 -14 -66 -68 0
-20 15 12 69 70 0
-20 15 12 69 -70 0
-20 15 12 -69 71 0
-20 15 12 -69 -71 0
-14 8 11 72 73 0
-14 8 11 72 -73 0
-14 8 11 -72 74 0
-14 8 11 -72 -74 0
5 -6 8 75 76 0
5 -6 8 75 -76 0
5 -6 8 -75 77 0
5 -6 8 -75 -77 0
5 -12 4 78 79 0
5 -12 4 78 -79 0
5 -12 4 -78 80 0
5 -12 4 -78 -80 0
15 -20 11 81 82 0
15 -20 11 81 -82 0
15 -20 11 -81 83 0
15 -20 11 -81 -83 0
5 12 -17 84 85 0
5 12 -17 84 -85 0
5 12 -17 -84 86 0
5 12 -17 -84 -86 0
-17 16 -10 87 88 0
-17 16 -10 87 -88 0
-17 16 -10 -87 89 0
-17 16 -10 -87 -89 0
20 8 18 90 91 0
20 8 18 90 -91 0
20 8 18 -90 92 0
20 8 18 -90 -92 0
-8 15 -10 93 94 0
-8 15 -10 93 -94 0
-8 15 -10 -93 95 0
-8 15 -10 -93 -95 0
-11 10 -7 96 97 0
-11 10 -7 96 -97 0
-11 10 -7 -96 98 0
-11 10 -7 -96 -98 0
-4 -14 1 99 100 0
-4 -14 1 99 -100 0
-4 -14 1 -99 101 0
-4 -14 1 -99 -101 0
19 14 5 102 103 0
19 14 5 102 -103 0
19 14 5 -102 104 0
19 14 5 -102 -104 0
-18 -8 -13 105 106 0
-18 -8 -13 105 -106 0
-18 -8 -13 -105 107 0
-18 -8 -13 -105 -107 0
1 -19 -10 108 109 0
1 -19 -10 108 -109 0
1 -19 -10 -108 110 0
1 -19 -10 -108 -110 0
-6 4 -9 111 112 0
-6 4 -9 111 -112 0
-6 4 -9 -111 113 0
-6 4 -9 -111 -113 0
8 6 5 114 115 0
8 6 5 114 -115 0
8 6 5 -114 116 0
8 6 5 -114 -116 0
17 -4 15 117 118 0
17 -4 15 117 -118 0
17 -4 15 -117 119 0
17 -4 15 -117 -119 0
-7 8 11 120 121 0
-7 8 11 120 -121 0
-7 8 11 -120 122 0
-7 8 11 -120 -122 0
15 -4 -20 123 124 0
15 -4 -20 123 -124 0
15 -4 -20 -123 125 0
15 -4 -20 -123 -125 0
-4 -19 -18 126 127 0
-4 -19 -18 126 -127 0
-4 -19 -18 -126 128 0
-4 -19 -18 -126 -128 0
3 18 5 129 130 0
3 18 5 129 -130 0
3 18 5 -129 131 0
3 18 5 -129 -131 0
8 3 14 132 133 0
8 3 14 132 -133 0
8 3 14 -132 134 0
8 3 14 -132 -134 0
-5 9 -12 135 136 0
-5 9 -12 135 -136 0
-5 9 -12 -135 137 0
-5 9 -12 -135 -137 0
-17 3 -18 138 139 0
-17 3 -18 138 -139 0
-17 3 -18 -138 140 0
-17 3 -18 -138 -140 0
10 -9 8 141 142 0
10 -9 8 141 -142 0
10 -9 8 -141 143 0
10 -9 8 -141 -143 0
-4 18 12 144 145 0
-4 18 12 144 -145 0
-4 18 12 -144 146 0
-4 18 12 -144 -146 0
-18 6 -15 147 148 0
-18 6 -15 147 -148 0
-18 6 -15 -147 149 0
-18 6 -15 -147 -149 0
-4 17 10 150 151 0
-4 17 10 150 -151 0
-4 17 10 -150 152 0
-4 17 10 -150 -152 0
-16 -8 -2 153 154 0
-16 -8 -2 153 -154 0
-16 -8 -2 -153 155 0
-16 -8 -2 -153 -155 0
2 3 -10 156 157 0
2 3 -10 156 -157 0
2 3 -10 -156 158 0
2 3 -10 -156 -158 0
8 -18 1 159 160 0
8 -18 1 159 -160 0
8 -18 1 -159 161 0
8 -18 1 -159 -161 0
5 -16 -14 162 163 0
5 -16 -14 162 -163 0
5 -16 -14 -162 164 0
5 -16 -14 -162 -164 0
-13 -19 16 165 166 0
-13 -19 16 165 -166 0
-13 -19 16 -165 167 0
-13 -19 16 -165 -167 0
-19 7 -16 168 169 0
-19 7 -16 168 -169 0
-19 7 -16 -168 170 0
-19 7 -16 -168 -170 0
-13 -18 3 171 172 0
-13 -18 3 171 -172 0
-13 -18 3 -171 173 0
-13 -18 3 -171 -173 0
-10 -2 8 174 175 0
-10 -2 8 174 -175 0
-10 -2 8 -174 176 0
-10 -2 8 -174 -176 0
17 -16 -19 177 178 0
17 -16 -19 177 -178 0
17 -16 -19 -177 179 0
17 -16 -19 -177 -179 0
-1 10 16 180 181 0
-1 10 16 180 -181 0
-1 10 16 -180 182 0
-1 10 16 -180 -182 0
-19 -5 16 183 184 0
-19 -5 16 183 -184 0
-19 -5 16 -183 185 0
-19 -5 16 -183 -185 0
-13 8 -2 186 187 0
-13 8 -2 186 -187 0
-13 8 -2 -186 188 0
-13 8 -2 -186 -188 0
-5 11 16 189 190 0
-5 11 16 189 -190 0
-5 11 16 -189 191 0
-5 11 16 -189 -191 0
-16 17 -2 192 193 0
-16 17 -2 192 -193 0
-16 17 -2 -192 194 0
-16 17 -2 -192 -194 0
12 7 -10 195 196 0
12 7 -10 195 -196 0
12 7 -10 -195 197 0
12 7 -10 -195 -197 0
-18 -1 -14 198 199 0
-18 -1 -14 198 -199 0
-18 -1 -14 -198 200 0
-18 -1 -14 -198 -200 0
7 4 -19 201 202 0
7 4 -19 201 -202 0
7 4 -19 -201 203 0
7 4 -19 -201 -203 0
-6 -14 -9 204 205 0
-6 -14 -9 204 -205 0
-6 -14 -9 -204 206 0
-6 -14 -9 -204 -206 0
15 -11 -18 207 208 0
15 -11 -18 207 -208 0
15 -11 -18 -207 209 0
15 -11 -18 -207 -209 0
20 5 6 210 211 0
20 5 6 210 -211 0
20 5 6 -210 212 0
20 5 6 -210 -212 0
-5 7 -3 213 214 0
-5 7 -3 213 -214 0
-5 7 -3 -213 215 0
-5 7 -3 -213 -215 0
-15 9 3 216 217 0
-15 9 3 216 -217 0
-15 9 3 -216 218 0
-15 9 3 -216 -218 0
-6 -16 -1 219 220 0
-6 -16 -1 219 -220 0
-6 -16 -1 -219 221 0
-6 -16 -1 -219 -221 0
11 -8 6 222 223 0
11 -8 6 222 -223 0
11 -8 6 -222 224 0
11 -8 6 -222 -224 0
4 16 -8 225 226 0
4 16 -8 225 -226 0
4 16 -8 -225 227 0
4 16 -8 -225 -227 0
-12 8 1 228 229 0
-12 8 1 228 -229 0
-12 8 1 -228 230 0
-12 8 1 -228 -230 0
-13 -19 -10 231 232 0
-13 -19 -10 231 -232 0
-13 -19 -10 -231 233 0
-13 -19 -10 -231 -233 0
2 -18 15 234 235 0
2 -18 15 234 -235 0
2 -18 15 -234 236 0
2 -18 15 -234 -236 0
16 -3 2 237 238 0
16 -3 2 237 -238 0
16 -3 2 -237 239 0
16 -3 2 -237 -239 0
14 -8 12 240 241 0
14 -8 12 240 -241 0
14 -8 12 -240 242 0
14 -8 12 -240 -242 0
15 18 6 243 244 0
15 18 6 243 -244 0
15 18 6 -243 245 0
15 18 6 -243 -245 0
-2 -1 -18 246 247 0
-2 -1 -18 246 -247 0
-2 -1 -18 -246 248 0
-2 -1 -18 -246 -248 0
-18 9 -12 249 250 0
-18 9 -12 249 -250 0
-18 9 -12 -249 251 0
-18 9 -12 -249 -251 0
-15 -3 16 252 253 0
-15 -3 16 252 -253 0
-15 -3 16 -252 254 0
-15 -3 16 -252 -254 0
-1 6 15 255 256 0
-1 6 15 255 -256 0
-1 6 15 -255 257 0
-1 6 15 -255 -257 0
18 -4 2 258 259 0
18 -4 2 258 -259 0
18 -4 2 -258 260 0
18 -4 2 -258 -260 0
11 -15 -4 261 262 0
11 -15 -4 261 -262 0
11 -15 -4 -261 263 0
11 -15 -4 -261 -263 0
-4 9 5 264 265 0
-4 9 5 264 -265 0
-4 9 5 -264 266 0
-4 9 5 -264 -266 0
15 -2 8 267 268 0
15 -2 8 267 -268 0
15 -2 8 -267 269 0
15 -2 8 -267 -269 0
-17 -19 -6 270 271 0
-17 -19 -6 270 -271 0
-17 -19 -6 -270 272 0
-17 -19 -6 -270 -272 0
-15 -8 -19 273 274 0
-15 -8 -19 273 -274 0
-15 -8 -19 -273 275 0
-15 -8 -19 -273 -275 0
1 -6 5 276 277 0
1 -6 5 276 -277 0
1 -6 5 -276 278 0
1 -6 5 -276 -278 0
-12 5 7 279 280 0
-12 5 7 279 -280 0
-12 5 7 -279 281 0
-12 5 7 -279 -281 0
13 -18 10 282 283 0
13 -18 10 282 -283 0
13 -18 10 -282 284 0
13 -18 10 -282 -284 0
-8 -4 -17 285 286 0
-8 -4 -17 285 -286 0
-8 -4 -17 -285 287 0
-8 -4 -17 -285 -287 0
-6 17 9 288 289 0
-6 17 9 288 -289 0
-6 17 9 -288 290 0
-6 17 9 -288 -290 0
17 13 -14 291 292 0
17 13 -14 291 -292 0
17 13 -14 -291 293 0
17 13 -14 -291 -293 0
294 295 297 301 309 0
294 295 297 301 -309 0
294 295 297 -301 310 0
294 295 297 -301 -310 0
294 295 -297 302 311 0
294 295 -297 302 -311 0
294 295 -297 -302 312 0
294 295 -297 -302 -312 0
294 -295 298 303 313 0
294 -295 298 303 -313 0
294 -295 298 -303 314 0
294 -295 298 -303 -314 0
294 -295 -298 304 315 0
294 -295 -298 304 -315 0
294 -295 -298 -304 316 0
294 -295 -298 -304 -316 0
-294 296 299 305 317 0
-294 296 299 305 -317 0
-294 296 299 -305 318 0
-294 296 299 -305 -318 0
-294 296 -299 306 319 0
-294 296 -299 306 -319 0
-294 296 -299 -306 320 0
-294 296 -299 -306 -320 0
-294 -296 300 307 321 0
-294 -296 300 307 -321 0
-294 -296 300 -307 322 0
-294 -296 300 -307 -322 0
-294 -296 -300 308 323 0
-294 -296 -300 308 -323 0
-294 -296 -300 -308 324 0
-294 -296 -300 -308 -324 0
325 326 328 332 340 0
325 326 328 332 -340 0
325 326 328 -332 341 0
325 326 328 -332 -341 0
325 326 -328 333 342 0
325 326 -328 333 -342 0
325 326 -328 -333 343 0
325 326 -328 -333 -343 0
325 -326 329 334 344 0
325 -326 329 334 -344 0
325 -326 329 -334 345 0
325 -326 329 -334 -345 0
325 -326 -329 335 346 0
325 -326 -329 335 -346 0
325 -326 -329 -335 347 0
325 -326 -329 -335 -347 0
-325 327 330 336 348 0
-325 327 330 336 -348 0
-325 327 330 -336 349 0
-325 327 330 -336 -349 0
-325 327 -330 337 350 0
-325 327 -330 337 -350 0
-325 327 -330 -337 351 0
-325 327 -330 -337 -351 0
-325 -327 331 338 352 0
-325 -327 331 338 -352 0
-325 -327 331 -338 353 0
-325 -327 331 -338 -353 0
-325 -327 -331 339 354 0
-325 -327 -331 339 -354 0
-325 -327 -331 -339 355 0
-325 -327 -331 -339 -355 0
356 357 359 363 371 0
356 357 359 363 -371 0
356 357 359 -363 372 0
356 357 359 -363 -372 0
356 357 -359 364 373 0
356 357 -359 364 -373 0
356 357 -359 -364 374 0
356 357 -359 -364 -374 0
356 -357 360 365 375 0
356 -357 360 365 -375 0
356 -357 360 -365 376 0
356 -357 360 -365 -376 0
356 -357 -360 366 377 0
356 -357 -360 366 -377 0
356 -357 -360 -366 378 0
356 -357 -360 -366 -378 0
-356 358 361 367 379 0
-356 358 361 367 -379 0
-356 358 361 -367 380 0
-356 358 361 -367 -380 0
-356 358 -361 368 381 0
-356 358 -361 368 -381 0
-356 358 -361 -368 382 0
-356 358 -361 -368 -382 0
-356 -358 362 369 383 0
-356 -358 362 369 -383 0
-356 -358 362 -369 384 0
-356 -358 362 -369 -384 0
-356 -358 -362 370 385 0
-356 -358 -362 370 -385 0
-356 -358 -362 -370 386 0
-356 -358 -362 -370 -386 0

